Gurobi Optimizer version 9.0.3 build v9.0.3rc0 (win64)
Optimize a model with 31714 rows, 17664 columns and 107552 nonzeros
Model fingerprint: 0xe94ee101
Variable types: 2793 continuous, 14871 integer (14871 binary)
Coefficient statistics:
  Matrix range     [1e+00, 5e+00]
  Objective range  [7e-05, 1e+00]
  Bounds range     [1e+00, 1e+00]
  RHS range        [1e+00, 2e+01]
Presolve removed 24554 rows and 12291 columns
Presolve time: 0.32s
Presolved: 7160 rows, 5373 columns, 20107 nonzeros
Variable types: 2304 continuous, 3069 integer (3068 binary)
Found heuristic solution: objective 5.0003556

Root relaxation: objective 5.000356e+00, 38 iterations, 0.01 seconds

    Nodes    |    Current Node    |     Objective Bounds      |     Work
 Expl Unexpl |  Obj  Depth IntInf | Incumbent    BestBd   Gap | It/Node Time

     0     0          -    0         5.00036    5.00036  0.00%     -    0s

Optimal solution found at node 0 - now completing solution pool...

    Nodes    |    Current Node    |      Pool Obj. Bounds     |     Work
             |                    |   Worst                   |
 Expl Unexpl |  Obj  Depth IntInf | Incumbent    BestBd   Gap | It/Node Time

     0     0          -    0               -    5.00036      -     -    0s
     0     0          -    0               -    5.00036      -     -    0s
     0     2          -    0               -    5.00036      -     -    0s
  3716  3084    7.00049   30   12          -    5.00036      -   1.3    5s
  8288  7868          -  195               -    5.00036      -   1.0   10s
 12761 12637          -  281               -    5.00036      -   1.1   15s
 16521 15906          -  247               -    5.00036      -   1.1   20s
 21042 20782          -  261               -    5.00036      -   1.0   26s
 24748 24350 infeasible  208               -    5.00036      -   1.0   30s
 28694 28076 infeasible   93               -    5.00036      -   0.9   35s
 32804 32096          -  575               -    5.00036      -   0.9   40s
 37205 36360    9.00062   83    3          -    5.00036      -   0.9   45s
 41353 40077          -  304               -    5.00036      -   0.9   50s

Explored 41413 nodes (35603 simplex iterations) in 50.06 seconds
Thread count was 4 (of 4 available processors)

Solution count 246: 5.00036 7.00043 7.00043 ... 15.0011

Time limit reached
Best objective 5.000355568198e+00, best bound 5.000355568198e+00, gap 0.0000%
